01000011110100110010000010        384
10110010101010110001000010        394
10110010101010110001000010        394
11111011110110010010101010        439
11111011110110010010101010        439
11111011110110010010101010        439
11111011110110010010101010        439
11111011110110010010101010        439
11111011110110010010101010        439
11111011110110010010101010        439
11111011110110010010101010        439
01111011110110110011101110        494
01111011110110110011101110        494
01111011110110110011101110        494
01111011110110110011101110        494
01111011110110110011101110        494
01111011110110110011101110        494
01111011110110110011101110        494
01111011110110110011101110        494
01111011110110110011101110        494
01111011110110110011101110        494
01111011110110110011101110        494
01111011110110110011101110        494
01111011110110110011101110        494
01111011110110110011101110        494
01111011110110110011101110        494
01111011110110110011101110        494
01111011110110110011101110        494
01111011110110110011101110        494
01111011110110110011101110        494
01111011110110110011101110        494
01111011110110110011101110        494
01111011110110110011101110        494
01111011110110110011101110        494
01111011110110110011101110        494
01111011110110110011101110        494
01111011110110110011101110        494
01111011110110110011101110        494
01111011110110110011101110        494
01111011110110110011101110        494
01111011110110110011101110        494
01111011110110110011101110        494
01111011110110110011101110        494
01111011110110110011101110        494
01111011110110110011101110        494
01111011110110110011101110        494
01111011110110110011101110        494
01111011110110110011101110        494
01111011110110110011101110        494
01111011110110110011101110        494
01111011110110110011101110        494
01111011110110110011101110        494
01111011110110110011101110        494
01111011110110110011101110        494
01111011110110110011101110        494
01111011110110110011101110        494
01111011110110110011101110        494
01111011110110110011101110        494
01111011110110110011101110        494
01111011110110110011101110        494
01111011110110110011101110        494
01111011110110110011101110        494
01111011110110110011101110        494
01111011110110110011101110        494
01111011110110110011101110        494
01111011110110110011101110        494
01111011110110110011101110        494
01111011110110110011101110        494
01111011110110110011101110        494
01111011110110110011101110        494
01111011110110110011101110        494
01111011110110110011101110        494
01111011110110110011101110        494
01111011110110110011101110        494
01111011110110110011101110        494
01111011110110110011101110        494
01111011110110110011101110        494
01111011110110110011101110        494
01111011110110110011101110        494
01111011110110110011101110        494
01111011110110110011101110        494
01111011110110110011101110        494
01111011110110110011101110        494
01111011110110110011101110        494
01111011110110110011101110        494
01111011110110110011101110        494
01111011110110110011101110        494
01111011110110110011101110        494
01111011110110110011101110        494
01111011110110110011101110        494
01111011110110110011101110        494
01111011110110110011101110        494
01111011110110110011101110        494
01111011110110110011101110        494
01111011110110110011101110        494
01111011110110110011101110        494
01111011110110110011101110        494
01111011110110110011101110        494
01111011110110110011101110        494
01111011110110110011101110        494
01111011110110110011101110        494
01111011110110110011101110        494
01111011110110110011101110        494
01111011110110110011101110        494
01111011110110110011101110        494
01111011110110110011101110        494
01111011110110110011101110        494
01111011110110110011101110        494
01111011110110110011101110        494
01111011110110110011101110        494
01111011110110110011101110        494
01111011110110110011101110        494
01111011110110110011101110        494
01111011110110110011101110        494
01111011110110110011101110        494
01111011110110110011101110        494
01111011110110110011101110        494
01111011110110110011101110        494
01111011110110110011101110        494
01111011110110110011101110        494
01111011110110110011101110        494
01111011110110110011101110        494
01111011110110110011101110        494
01111011110110110011101110        494
01111011110110110011101110        494
01111011110110110011101110        494
01111011110110110011101110        494
01111011110110110011101110        494
01111011110110110011101110        494
01111011110110110011101110        494
01111011110110110011101110        494
01111011110110110011101110        494
01111011110110110011101110        494
01111011110110110011101110        494
01111011110110110011101110        494
01111011110110110011101110        494
01111011110110110011101110        494
01111011110110110011101110        494
01111011110110110011101110        494
01111011110110110011101110        494
01111011110110110011101110        494
01111011110110110011101110        494
01111011110110110011101110        494
01111011110110110011101110        494
01111011110110110011101110        494
01111011110110110011101110        494
01111011110110110011101110        494
01111011110110110011101110        494
01111011110110110011101110        494
01111011110110110011101110        494
01111011110110110011101110        494
01111011110110110011101110        494
01111011110110110011101110        494
01111011110110110011101110        494
01111011110110110011101110        494
01111011110110110011101110        494
01111011110110110011101110        494
01111011110110110011101110        494
01111011110110110011101110        494
01111011110110110011101110        494
01111011110110110011101110        494
01111011110110110011101110        494
01111011110110110011101110        494
01111011110110110011101110        494
01111011110110110011101110        494
01111011110110110011101110        494
01111011110110110011101110        494
01111011110110110011101110        494
01111011110110110011101110        494
01111011110110110011101110        494
01111011110110110011101110        494
01111011110110110011101110        494
01111011110110110011101110        494
01111011110110110011101110        494
01111011110110110011101110        494
01111011110110110011101110        494
01111011110110110011101110        494
01111011110110110011101110        494
01111011110110110011101110        494
01111011110110110011101110        494
01111011110110110011101110        494
01111011110110110011101110        494
01111011110110110011101110        494
01111011110110110011101110        494
01111011110110110011101110        494
01111011110110110011101110        494
01111011110110110011101110        494
01111011110110110011101110        494
01111011110110110011101110        494
01111011110110110011101110        494
01111011110110110011101110        494
01111011110110110011101110        494
01111011110110110011101110        494
01111011110110110011101110        494
01111011110110110011101110        494
01111011110110110011101110        494
01111011110110110011101110        494
01111011110110110011101110        494
01111011110110110011101110        494
01111011110110110011101110        494
01111011110110110011101110        494
01111011110110110011101110        494
01111011110110110011101110        494
01111011110110110011101110        494
01111011110110110011101110        494
01111011110110110011101110        494
01111011110110110011101110        494
01111011110110110011101110        494
01111011110110110011101110        494
01111011110110110011101110        494
01111011110110110011101110        494
01111011110110110011101110        494
01111011110110110011101110        494
01111011110110110011101110        494
01111011110110110011101110        494
01111011110110110011101110        494
01111011110110110011101110        494
01111011110110110011101110        494
01111011110110110011101110        494
01111011110110110011101110        494
01111011110110110011101110        494
01111011110110110011101110        494
01111011110110110011101110        494
01111011110110110011101110        494
01111011110110110011101110        494
01111011110110110011101110        494
01111011110110110011101110        494
01111011110110110011101110        494
01111011110110110011101110        494
01111011110110110011101110        494
01111011110110110011101110        494
01111011110110110011101110        494
01111011110110110011101110        494
01111011110110110011101110        494
01111011110110110011101110        494
01111011110110110011101110        494
01111011110110110011101110        494
01111011110110110011101110        494
01111011110110110011101110        494
01111011110110110011101110        494
01111011110110110011101110        494
01111011110110110011101110        494
01111011110110110011101110        494
01111011110110110011101110        494
01111011110110110011101110        494
01111011110110110011101110        494
01111011110110110011101110        494
01111011110110110011101110        494
01111011110110110011101110        494
01111011110110110011101110        494
01111011110110110011101110        494
01111011110110110011101110        494
01111011110110110011101110        494
01111011110110110011101110        494
01111011110110110011101110        494
01111011110110110011101110        494
01111011110110110011101110        494
01111011110110110011101110        494
01111011110110110011101110        494
01111011110110110011101110        494
01111011110110110011101110        494
01111011110110110011101110        494
01111011110110110011101110        494
01111011110110110011101110        494
01111011110110110011101110        494
01111011110110110011101110        494
01111011110110110011101110        494
01111011110110110011101110        494
01111011110110110011101110        494
01111011110110110011101110        494
01111011110110110011101110        494
01111011110110110011101110        494
01111011110110110011101110        494
01111011110110110011101110        494
01111011110110110011101110        494
01111011110110110011101110        494
01111011110110110011101110        494
01111011110110110011101110        494
01111011110110110011101110        494
01111011110110110011101110        494
01111011110110110011101110        494
01111011110110110011101110        494
01111011110110110011101110        494
01111011110110110011101110        494
01111011110110110011101110        494
01111011110110110011101110        494
01111011110110110011101110        494
01111011110110110011101110        494
01111011110110110011101110        494
01111011110110110011101110        494
01111011110110110011101110        494
01111011110110110011101110        494
01111011110110110011101110        494
01111011110110110011101110        494
01111011110110110011101110        494
01111011110110110011101110        494
01111011110110110011101110        494
01111011110110110011101110        494
01111011110110110011101110        494
01111011110110110011101110        494
01111011110110110011101110        494
01111011110110110011101110        494
01111011110110110011101110        494
01111011110110110011101110        494
01111011110110110011101110        494
01111011110110110011101110        494
01111011110110110011101110        494
01111011110110110011101110        494
01111011110110110011101110        494
01111011110110110011101110        494
01111011110110110011101110        494
01111011110110110011101110        494
01111011110110110011101110        494
01111011110110110011101110        494
01111011110110110011101110        494
01111011110110110011101110        494
01111011110110110011101110        494
01111011110110110011101110        494
01111011110110110011101110        494
01111011110110110011101110        494
01111011110110110011101110        494
01111011110110110011101110        494
01111011110110110011101110        494
01111011110110110011101110        494
01111011110110110011101110        494
01111011110110110011101110        494
01111011110110110011101110        494
01111011110110110011101110        494
01111011110110110011101110        494
01111011110110110011101110        494
01111011110110110011101110        494
01111011110110110011101110        494
01111011110110110011101110        494
01111011110110110011101110        494
01111011110110110011101110        494
01111011110110110011101110        494
01111011110110110011101110        494
01111011110110110011101110        494
01111011110110110011101110        494
01111011110110110011101110        494
01111011110110110011101110        494
01111011110110110011101110        494
01111011110110110011101110        494
01111011110110110011101110        494
01111011110110110011101110        494
01111011110110110011101110        494
01111011110110110011101110        494
01111011110110110011101110        494
01111011110110110011101110        494
01111011110110110011101110        494
01111011110110110011101110        494
01111011110110110011101110        494
01111011110110110011101110        494
01111011110110110011101110        494
01111011110110110011101110        494
01111011110110110011101110        494
01111011110110110011101110        494
01111011110110110011101110        494
01111011110110110011101110        494
01111011110110110011101110        494
01111011110110110011101110        494
01111011110110110011101110        494
01111011110110110011101110        494
01111011110110110011101110        494
01111011110110110011101110        494
01111011110110110011101110        494
01111011110110110011101110        494
01111011110110110011101110        494
01111011110110110011101110        494
01111011110110110011101110        494
01111011110110110011101110        494
01111011110110110011101110        494
01111011110110110011101110        494
01111011110110110011101110        494
01111011110110110011101110        494
01111011110110110011101110        494
01111011110110110011101110        494
01111011110110110011101110        494
01111011110110110011101110        494
01111011110110110011101110        494
01111011110110110011101110        494
01111011110110110011101110        494
01111011110110110011101110        494
01111011110110110011101110        494
01111011110110110011101110        494
01111011110110110011101110        494
01111011110110110011101110        494
01111011110110110011101110        494
01111011110110110011101110        494
01111011110110110011101110        494
01111011110110110011101110        494
01111011110110110011101110        494
01111011110110110011101110        494
01111011110110110011101110        494
01111011110110110011101110        494
01111011110110110011101110        494
01111011110110110011101110        494
01111011110110110011101110        494
01111011110110110011101110        494
01111011110110110011101110        494
01111011110110110011101110        494
01111011110110110011101110        494
01111011110110110011101110        494
01111011110110110011101110        494
01111011110110110011101110        494
01111011110110110011101110        494
01111011110110110011101110        494
01111011110110110011101110        494
01111011110110110011101110        494
01111011110110110011101110        494
01111011110110110011101110        494
01111011110110110011101110        494
01111011110110110011101110        494
01111011110110110011101110        494
01111011110110110011101110        494
01111011110110110011101110        494
01111011110110110011101110        494
01111011110110110011101110        494
01111011110110110011101110        494
01111011110110110011101110        494
01111011110110110011101110        494
01111011110110110011101110        494
01111011110110110011101110        494
01111011110110110011101110        494
01111011110110110011101110        494
01111011110110110011101110        494
01111011110110110011101110        494
01111011110110110011101110        494
01111011110110110011101110        494
01111011110110110011101110        494
01111011110110110011101110        494
01111011110110110011101110        494
01111011110110110011101110        494
01111011110110110011101110        494
01111011110110110011101110        494
01111011110110110011101110        494
01111011110110110011101110        494
01111011110110110011101110        494
01111011110110110011101110        494
01111011110110110011101110        494
01111011110110110011101110        494
01111011110110110011101110        494
01111011110110110011101110        494
01111011110110110011101110        494
01111011110110110011101110        494
01111011110110110011101110        494
01111011110110110011101110        494
01111011110110110011101110        494
01111011110110110011101110        494
01111011110110110011101110        494
01111011110110110011101110        494
01111011110110110011101110        494
01111011110110110011101110        494
01111011110110110011101110        494
01111011110110110011101110        494
01111011110110110011101110        494
01111011110110110011101110        494
01111011110110110011101110        494
01111011110110110011101110        494
01111011110110110011101110        494
01111011110110110011101110        494
01111011110110110011101110        494
01111011110110110011101110        494
01111011110110110011101110        494
01111011110110110011101110        494
01111011110110110011101110        494
01111011110110110011101110        494
01111011110110110011101110        494
01111011110110110011101110        494
01111011110110110011101110        494
01111011110110110011101110        494
01111011110110110011101110        494
01111011110110110011101110        494
01111011110110110011101110        494
01111011110110110011101110        494
01111011110110110011101110        494
01111011110110110011101110        494
01111011110110110011101110        494
01111011110110110011101110        494
01111011110110110011101110        494
01111011110110110011101110        494
01111011110110110011101110        494
01111011110110110011101110        494
01111011110110110011101110        494
01111011110110110011101110        494
01111011110110110011101110        494
01111011110110110011101110        494
01111011110110110011101110        494
01111011110110110011101110        494
01111011110110110011101110        494
01111011110110110011101110        494
01111011110110110011101110        494
01111011110110110011101110        494
01111011110110110011101110        494
01111011110110110011101110        494
01111011110110110011101110        494
01111011110110110011101110        494
01111011110110110011101110        494
01111011110110110011101110        494
01111011110110110011101110        494
01111011110110110011101110        494
01111011110110110011101110        494
01111011110110110011101110        494
01111011110110110011101110        494
01111011110110110011101110        494
01111011110110110011101110        494
01111011110110110011101110        494
01111011110110110011101110        494
01111011110110110011101110        494
01111011110110110011101110        494
01111011110110110011101110        494
01111011110110110011101110        494
01111011110110110011101110        494
01111011110110110011101110        494
01111011110110110011101110        494
01111011110110110011101110        494
01111011110110110011101110        494
01111011110110110011101110        494
01111011110110110011101110        494
01111011110110110011101110        494
01111011110110110011101110        494
01111011110110110011101110        494
01111011110110110011101110        494
01111011110110110011101110        494
01111011110110110011101110        494
01111011110110110011101110        494
01111011110110110011101110        494
01111011110110110011101110        494
01111011110110110011101110        494
01111011110110110011101110        494
01111011110110110011101110        494
01111011110110110011101110        494
01111011110110110011101110        494
01111011110110110011101110        494
01111011110110110011101110        494
01111011110110110011101110        494
01111011110110110011101110        494
01111011110110110011101110        494
01111011110110110011101110        494
01111011110110110011101110        494
01111011110110110011101110        494
01111011110110110011101110        494
01111011110110110011101110        494
01111011110110110011101110        494
01111011110110110011101110        494
01111011110110110011101110        494
01111011110110110011101110        494
01111011110110110011101110        494
01111011110110110011101110        494
01111011110110110011101110        494
01111011110110110011101110        494
01111011110110110011101110        494
01111011110110110011101110        494
01111011110110110011101110        494
01111011110110110011101110        494
01111011110110110011101110        494
01111011110110110011101110        494
01111011110110110011101110        494
01111011110110110011101110        494
01111011110110110011101110        494
01111011110110110011101110        494
01111011110110110011101110        494
01111011110110110011101110        494
01111011110110110011101110        494
01111011110110110011101110        494
01111011110110110011101110        494
01111011110110110011101110        494
01111011110110110011101110        494
01111011110110110011101110        494
01111011110110110011101110        494
01111011110110110011101110        494
01111011110110110011101110        494
01111011110110110011101110        494
01111011110110110011101110        494
01111011110110110011101110        494
01111011110110110011101110        494
01111011110110110011101110        494
01111011110110110011101110        494
01111011110110110011101110        494
01111011110110110011101110        494
01111011110110110011101110        494
01111011110110110011101110        494
01111011110110110011101110        494
01111011110110110011101110        494
01111011110110110011101110        494
01111011110110110011101110        494
01111011110110110011101110        494
01111011110110110011101110        494
01111011110110110011101110        494
01111011110110110011101110        494
01111011110110110011101110        494
01111011110110110011101110        494
01111011110110110011101110        494
01111011110110110011101110        494
01111011110110110011101110        494
01111011110110110011101110        494
01111011110110110011101110        494
01111011110110110011101110        494
01111011110110110011101110        494
01111011110110110011101110        494
01111011110110110011101110        494
01111011110110110011101110        494
01111011110110110011101110        494
01111011110110110011101110        494
01111011110110110011101110        494
01111011110110110011101110        494
01111011110110110011101110        494
01111011110110110011101110        494
01111011110110110011101110        494
01111011110110110011101110        494
01111011110110110011101110        494
01111011110110110011101110        494
01111011110110110011101110        494
01111011110110110011101110        494
01111011110110110011101110        494
01111011110110110011101110        494
01111011110110110011101110        494
01111011110110110011101110        494
01111011110110110011101110        494
01111011110110110011101110        494
01111011110110110011101110        494
01111011110110110011101110        494
01111011110110110011101110        494
01111011110110110011101110        494
01111011110110110011101110        494
01111011110110110011101110        494
01111011110110110011101110        494
01111011110110110011101110        494
01111011110110110011101110        494
01111011110110110011101110        494
01111011110110110011101110        494
01111011110110110011101110        494
01111011110110110011101110        494
01111011110110110011101110        494
01111011110110110011101110        494
01111011110110110011101110        494
01111011110110110011101110        494
01111011110110110011101110        494
01111011110110110011101110        494
01111011110110110011101110        494
01111011110110110011101110        494
01111011110110110011101110        494
01111011110110110011101110        494
01111011110110110011101110        494
01111011110110110011101110        494
01111011110110110011101110        494
01111011110110110011101110        494
01111011110110110011101110        494
01111011110110110011101110        494
01111011110110110011101110        494
01111011110110110011101110        494
01111011110110110011101110        494
01111011110110110011101110        494
01111011110110110011101110        494
01111011110110110011101110        494
01111011110110110011101110        494
01111011110110110011101110        494
01111011110110110011101110        494
01111011110110110011101110        494
01111011110110110011101110        494
01111011110110110011101110        494
01111011110110110011101110        494
01111011110110110011101110        494
01111011110110110011101110        494
01111011110110110011101110        494
01111011110110110011101110        494
01111011110110110011101110        494
01111011110110110011101110        494
01111011110110110011101110        494
01111011110110110011101110        494
01111011110110110011101110        494
01111011110110110011101110        494
01111011110110110011101110        494
01111011110110110011101110        494
01111011110110110011101110        494
01111011110110110011101110        494
01111011110110110011101110        494
01111011110110110011101110        494
01111011110110110011101110        494
01111011110110110011101110        494
01111011110110110011101110        494
01111011110110110011101110        494
01111011110110110011101110        494
01111011110110110011101110        494
01111011110110110011101110        494
01111011110110110011101110        494
01111011110110110011101110        494
01111011110110110011101110        494
01111011110110110011101110        494
01111011110110110011101110        494
01111011110110110011101110        494
01111011110110110011101110        494
01111011110110110011101110        494
01111011110110110011101110        494
01111011110110110011101110        494
01111011110110110011101110        494
01111011110110110011101110        494
01111011110110110011101110        494
01111011110110110011101110        494
01111011110110110011101110        494
01111011110110110011101110        494
01111011110110110011101110        494
01111011110110110011101110        494
01111011110110110011101110        494
01111011110110110011101110        494
01111011110110110011101110        494
01111011110110110011101110        494
01111011110110110011101110        494
01111011110110110011101110        494
01111011110110110011101110        494
01111011110110110011101110        494
01111011110110110011101110        494
01111011110110110011101110        494
01111011110110110011101110        494
01111011110110110011101110        494
01111011110110110011101110        494
01111011110110110011101110        494
01111011110110110011101110        494
01111011110110110011101110        494
01111011110110110011101110        494
01111011110110110011101110        494
01111011110110110011101110        494
01111011110110110011101110        494
01111011110110110011101110        494
01111011110110110011101110        494
01111011110110110011101110        494
01111011110110110011101110        494
01111011110110110011101110        494
01111011110110110011101110        494
01111011110110110011101110        494
01111011110110110011101110        494
01111011110110110011101110        494
01111011110110110011101110        494
01111011110110110011101110        494
01111011110110110011101110        494
01111011110110110011101110        494
01111011110110110011101110        494
01111011110110110011101110        494
01111011110110110011101110        494
01111011110110110011101110        494
01111011110110110011101110        494
01111011110110110011101110        494
01111011110110110011101110        494
01111011110110110011101110        494
01111011110110110011101110        494
01111011110110110011101110        494
01111011110110110011101110        494
01111011110110110011101110        494
01111011110110110011101110        494
01111011110110110011101110        494
01111011110110110011101110        494
01111011110110110011101110        494
01111011110110110011101110        494
01111011110110110011101110        494
01111011110110110011101110        494
01111011110110110011101110        494
01111011110110110011101110        494
01111011110110110011101110        494
01111011110110110011101110        494
01111011110110110011101110        494
01111011110110110011101110        494
01111011110110110011101110        494
01111011110110110011101110        494
01111011110110110011101110        494
01111011110110110011101110        494
01111011110110110011101110        494
01111011110110110011101110        494
01111011110110110011101110        494
01111011110110110011101110        494
01111011110110110011101110        494
01111011110110110011101110        494
01111011110110110011101110        494
01111011110110110011101110        494
01111011110110110011101110        494
01111011110110110011101110        494
01111011110110110011101110        494
01111011110110110011101110        494
01111011110110110011101110        494
01111011110110110011101110        494
01111011110110110011101110        494
01111011110110110011101110        494
01111011110110110011101110        494
01111011110110110011101110        494
01111011110110110011101110        494
01111011110110110011101110        494
01111011110110110011101110        494
01111011110110110011101110        494
01111011110110110011101110        494
01111011110110110011101110        494
01111011110110110011101110        494
01111011110110110011101110        494
01111011110110110011101110        494
01111011110110110011101110        494
01111011110110110011101110        494
01111011110110110011101110        494
01111011110110110011101110        494
01111011110110110011101110        494
01111011110110110011101110        494
01111011110110110011101110        494
01111011110110110011101110        494
01111011110110110011101110        494
01111011110110110011101110        494
01111011110110110011101110        494
01111011110110110011101110        494
01111011110110110011101110        494
01111011110110110011101110        494
01111011110110110011101110        494
01111011110110110011101110        494
01111011110110110011101110        494
01111011110110110011101110        494
01111011110110110011101110        494
01111011110110110011101110        494
01111011110110110011101110        494
01111011110110110011101110        494
01111011110110110011101110        494
01111011110110110011101110        494
01111011110110110011101110        494
01111011110110110011101110        494
01111011110110110011101110        494
01111011110110110011101110        494
01111011110110110011101110        494
01111011110110110011101110        494
01111011110110110011101110        494
01111011110110110011101110        494
01111011110110110011101110        494
01111011110110110011101110        494
01111011110110110011101110        494
01111011110110110011101110        494
01111011110110110011101110        494
01111011110110110011101110        494
01111011110110110011101110        494
01111011110110110011101110        494
01111011110110110011101110        494
01111011110110110011101110        494
01111011110110110011101110        494
01111011110110110011101110        494
01111011110110110011101110        494
01111011110110110011101110        494
01111011110110110011101110        494
01111011110110110011101110        494
01111011110110110011101110        494
01111011110110110011101110        494
01111011110110110011101110        494
01111011110110110011101110        494
01111011110110110011101110        494
01111011110110110011101110        494
01111011110110110011101110        494
01111011110110110011101110        494
01111011110110110011101110        494
01111011110110110011101110        494
01111011110110110011101110        494
01111011110110110011101110        494
01111011110110110011101110        494
01111011110110110011101110        494
01111011110110110011101110        494
01111011110110110011101110        494
01111011110110110011101110        494
01111011110110110011101110        494
01111011110110110011101110        494
01111011110110110011101110        494
01111011110110110011101110        494
01111011110110110011101110        494
01111011110110110011101110        494
01111011110110110011101110        494
01111011110110110011101110        494
01111011110110110011101110        494
01111011110110110011101110        494
01111011110110110011101110        494
01111011110110110011101110        494
01111011110110110011101110        494
01111011110110110011101110        494
01111011110110110011101110        494
01111011110110110011101110        494
01111011110110110011101110        494
01111011110110110011101110        494
01111011110110110011101110        494
01111011110110110011101110        494
01111011110110110011101110        494
01111011110110110011101110        494
01111011110110110011101110        494
01111011110110110011101110        494
01111011110110110011101110        494
01111011110110110011101110        494
01111011110110110011101110        494
01111011110110110011101110        494
01111011110110110011101110        494
01111011110110110011101110        494
01111011110110110011101110        494
01111011110110110011101110        494
01111011110110110011101110        494
01111011110110110011101110        494
01111011110110110011101110        494
01111011110110110011101110        494
01111011110110110011101110        494
01111011110110110011101110        494
01111011110110110011101110        494
01111011110110110011101110        494
01111011110110110011101110        494
01111011110110110011101110        494
01111011110110110011101110        494
01111011110110110011101110        494
01111011110110110011101110        494
01111011110110110011101110        494
01111011110110110011101110        494
01111011110110110011101110        494
01111011110110110011101110        494
01111011110110110011101110        494
01111011110110110011101110        494
01111011110110110011101110        494
01111011110110110011101110        494
01111011110110110011101110        494
01111011110110110011101110        494
01111011110110110011101110        494
01111011110110110011101110        494
01111011110110110011101110        494
01111011110110110011101110        494
01111011110110110011101110        494
01111011110110110011101110        494
01111011110110110011101110        494
01111011110110110011101110        494
01111011110110110011101110        494
01111011110110110011101110        494
01111011110110110011101110        494
01111011110110110011101110        494
01111011110110110011101110        494
01111011110110110011101110        494
01111011110110110011101110        494
01111011110110110011101110        494
01111011110110110011101110        494
01111011110110110011101110        494
01111011110110110011101110        494
01111011110110110011101110        494
01111011110110110011101110        494
01111011110110110011101110        494
01111011110110110011101110        494
01111011110110110011101110        494
01111011110110110011101110        494
01111011110110110011101110        494
01111011110110110011101110        494
01111011110110110011101110        494
01111011110110110011101110        494
01111011110110110011101110        494
01111011110110110011101110        494
01111011110110110011101110        494
01111011110110110011101110        494
01111011110110110011101110        494
01111011110110110011101110        494
01111011110110110011101110        494
01111011110110110011101110        494
01111011110110110011101110        494
01111011110110110011101110        494
01111011110110110011101110        494
01111011110110110011101110        494
01111011110110110011101110        494
01111011110110110011101110        494
01111011110110110011101110        494
01111011110110110011101110        494
01111011110110110011101110        494
01111011110110110011101110        494
01111011110110110011101110        494
01111011110110110011101110        494
01111011110110110011101110        494
01111011110110110011101110        494
01111011110110110011101110        494
01111011110110110011101110        494
01111011110110110011101110        494
01111011110110110011101110        494
01111011110110110011101110        494
01111011110110110011101110        494
01111011110110110011101110        494
01111011110110110011101110        494
01111011110110110011101110        494
01111011110110110011101110        494
01111011110110110011101110        494
01111011110110110011101110        494
01111011110110110011101110        494
01111011110110110011101110        494
01111011110110110011101110        494
01111011110110110011101110        494
01111011110110110011101110        494
01111011110110110011101110        494
01111011110110110011101110        494
01111011110110110011101110        494
01111011110110110011101110        494
01111011110110110011101110        494
01111011110110110011101110        494
01111011110110110011101110        494
01111011110110110011101110        494
01111011110110110011101110        494
01111011110110110011101110        494
01111011110110110011101110        494
01111011110110110011101110        494
01111011110110110011101110        494
01111011110110110011101110        494
01111011110110110011101110        494
01111011110110110011101110        494
01111011110110110011101110        494
01111011110110110011101110        494
01111011110110110011101110        494
01111011110110110011101110        494
